p cnf 30 161
-2 1 0
-4 3 0
-6 5 0
-8 7 0
-10 9 0
-12 11 0
-14 13 0
-16 15 0
-18 17 0
-20 19 0
-22 21 0
-24 23 0
-26 25 0
-28 27 0
-30 29 0
-1 -2 -3 -4 0
1 2 0
1 3 0
1 4 0
2 3 0
2 4 0
3 4 0
1 0
2 0
5 0
6 0
7 0
8 0
5 0
6 0
9 0
10 0
11 0
12 0
-9 -10 -13 -14 0
9 10 0
9 13 0
9 14 0
10 13 0
10 14 0
13 14 0
-15 -16 0
15 16 0
-3 -4 -17 0
-3 -4 -18 0
-3 -4 -19 0
-3 -4 -20 0
-3 -17 -18 0
-3 -17 -19 0
-3 -17 -20 0
-3 -18 -19 0
-3 -18 -20 0
-3 -19 -20 0
-4 -17 -18 0
-4 -17 -19 0
-4 -17 -20 0
-4 -18 -19 0
-4 -18 -20 0
-4 -19 -20 0
-17 -18 -19 0
-17 -18 -20 0
-17 -19 -20 0
-18 -19 -20 0
3 4 17 18 19 0
3 4 17 18 20 0
3 4 17 19 20 0
3 4 18 19 20 0
3 17 18 19 20 0
4 17 18 19 20 0
-17 -18 0
-17 -21 0
-17 -22 0
-18 -21 0
-18 -22 0
-21 -22 0
17 18 21 22 0
-19 -20 0
-19 -23 0
-19 -24 0
-20 -23 0
-20 -24 0
-23 -24 0
19 20 23 24 0
-7 -8 -23 -24 0
-7 -8 -23 -25 0
-7 -8 -23 -26 0
-7 -8 -24 -25 0
-7 -8 -24 -26 0
-7 -8 -25 -26 0
-7 -23 -24 -25 0
-7 -23 -24 -26 0
-7 -23 -25 -26 0
-7 -24 -25 -26 0
-8 -23 -24 -25 0
-8 -23 -24 -26 0
-8 -23 -25 -26 0
-8 -24 -25 -26 0
-23 -24 -25 -26 0
7 8 23 24 0
7 8 23 25 0
7 8 23 26 0
7 8 24 25 0
7 8 24 26 0
7 8 25 26 0
7 23 24 25 0
7 23 24 26 0
7 23 25 26 0
7 24 25 26 0
8 23 24 25 0
8 23 24 26 0
8 23 25 26 0
8 24 25 26 0
23 24 25 26 0
-21 -22 -25 0
-21 -22 -26 0
-21 -25 -26 0
-22 -25 -26 0
21 22 25 0
21 22 26 0
21 25 26 0
22 25 26 0
-15 -16 -27 -28 0
15 16 0
15 27 0
15 28 0
16 27 0
16 28 0
27 28 0
-11 -12 -27 -28 -29 0
-11 -12 -27 -28 -30 0
-11 -12 -27 -29 -30 0
-11 -12 -28 -29 -30 0
-11 -27 -28 -29 -30 0
-12 -27 -28 -29 -30 0
11 12 27 0
11 12 28 0
11 12 29 0
11 12 30 0
11 27 28 0
11 27 29 0
11 27 30 0
11 28 29 0
11 28 30 0
11 29 30 0
12 27 28 0
12 27 29 0
12 27 30 0
12 28 29 0
12 28 30 0
12 29 30 0
27 28 29 0
27 28 30 0
27 29 30 0
28 29 30 0
-13 -14 0
-13 -29 0
-13 -30 0
-14 -29 0
-14 -30 0
-29 -30 0
13 14 29 30 0
